14
0 82 15 4 95 36 32 29 18 95 14 87 95 70
82 0 12 76 55 5 4 12 28 30 65 78 4 72
15 12 0 26 92 84 90 70 54 29 58 76 36 1
4 76 26 0 98 21 90 55 44 36 20 28 98 44
95 55 92 98 0 14 12 49 13 46 45 78 34 6
36 5 84 21 14 0 94 59 69 16 49 11 71 38
32 4 90 90 12 94 0 81 80 47 74 25 91 9
29 12 70 55 49 59 81 0 6 85 30 99 38 11
18 28 54 44 13 69 80 6 0 30 13 49 36 59
95 30 29 36 46 16 47 85 30 0 82 47 21 48
14 65 58 20 45 49 74 30 13 82 0 46 27 86
87 78 76 28 78 11 25 99 49 47 46 0 35 90
95 4 36 98 34 71 91 38 36 21 27 35 0 88
70 72 1 44 6 38 9 11 59 48 86 90 88 0
